eastwest = 9;
northsouth = 5;
cost = [| 4, 3, 2,  1, 0,  1, 2, 3, 4
 | 4, 3, 2,  1, 0,  1, 2, 3, 4
 | 4, 3, 2, -1, 0, -1, 2, 3, 4
 | 4, 3, 2,  1, 0,  1, 2, 3, 4
 | 4, 3, 2,  1, 0,  1, 2, 3, 4
 |];
ore = [| 3, 2, 1, 0, 0, 0, 1, 3, 5
 | 0, 0, 4, 0, 0, 0, 5, 0, 0
 | 2, 0, 0, 0, 0, 0, 0, 0, 2
 | 0, 0, 3, 0, 0, 0, 2, 0, 0
 | 2, 4, 4, 0, 0, 0, 1, 1, 4
 |];
budget = 16;
length = 16;
start = [(1,1),(1,5)];
